objective value:                                    0
lambda[1,21]*                                       3 	(obj:0)
lambda[1,23]*                                       2 	(obj:0)
lambda[1,25]*                                       5 	(obj:0)
lambda[0,30]*                                      10 	(obj:0)
